NAME: I1132-n45-k6
COMMENT : (Fake et al, No of trucks: 6, Optimal value: )
TYPE : CVRP
DIMENSION : 45
EDGE_WEIGHT_TYPE : EUC_2D
CAPACITY : 15
NODE_COORD_SECTION
1 677 611
2 905 369
3 126 636
4 130 371
5 463 524
6 140 560
7 416 416
8 882 470
9 243 379
10 948 436
11 799 219
12 673 303
13 853 519
14 688 156
15 964 647
16 33 21
17 538 729
18 441 187
19 853 104
20 172 629
21 257 610
22 915 136
23 195 884
24 207 799
25 85 892
26 656 475
27 162 928
28 123 401
29 788 357
30 941 63
31 890 47
32 197 838
33 907 60
34 702 836
35 617 788
36 538 288
37 459 233
38 214 590
39 543 597
40 380 189
41 694 793
42 403 471
43 344 206
44 162 805
45 29 724
DEMAND_SECTION
1 0
2 1
3 2
4 2
5 1
6 1
7 2
8 1
9 2
10 3
11 1
12 3
13 3
14 1
15 2
16 2
17 1
18 1
19 1
20 3
21 2
22 1
23 1
24 2
25 1
26 2
27 1
28 1
29 3
30 1
31 2
32 1
33 2
34 1
35 2
36 1
37 2
38 1
39 2
40 2
41 1
42 2
43 2
44 2
45 1
DEPOT_SECTION
 1
 -1
 EOF 